N = 510;
M = 1045;
Edge_Start = [1, 1, 2, 2, 3, 4, 4, 4, 5, 6, 6, 7, 7, 7, 8, 8, 9, 9, 9, 10, 10, 10, 11, 11, 12, 12, 12, 13, 14, 14, 14, 15, 15, 16, 16, 17, 17, 17, 18, 19, 19, 19, 20, 21, 21, 22, 23, 23, 24, 24, 25, 25, 25, 26, 26, 26, 27, 27, 27, 28, 28, 28, 29, 29, 29, 29, 30, 31, 32, 32, 32, 33, 33, 34, 35, 35, 35, 36, 36, 36, 37, 38, 38, 39, 40, 40, 41, 42, 42, 42, 43, 43, 43, 44, 44, 44, 45, 45, 46, 46, 47, 47, 47, 48, 48, 48, 49, 49, 49, 50, 50, 50, 51, 51, 52, 52, 53, 53, 54, 55, 55, 56, 56, 57, 57, 58, 59, 59, 60, 60, 61, 62, 62, 63, 63, 64, 65, 65, 66, 66, 66, 67, 67, 68, 68, 68, 69, 69, 70, 70, 71, 72, 73, 73, 74, 74, 74, 75, 75, 75, 76, 76, 76, 77, 77, 78, 79, 79, 80, 81, 81, 82, 82, 83, 83, 84, 85, 85, 86, 87, 87, 88, 88, 89, 89, 90, 90, 91, 92, 92, 92, 93, 93, 93, 94, 94, 94, 95, 95, 95, 96, 97, 97, 97, 98, 99, 99, 99, 100, 100, 100, 101, 101, 101, 102, 103, 103, 104, 104, 105, 105, 106, 106, 107, 107, 108, 108, 109, 109, 110, 110, 111, 111, 112, 112, 113, 113, 113, 114, 114, 115, 116, 116, 117, 118, 119, 120, 120, 121, 122, 122, 122, 123, 124, 125, 125, 125, 126, 126, 127, 127, 128, 129, 129, 129, 130, 130, 130, 131, 131, 132, 133, 134, 135, 135, 136, 137, 137, 138, 139, 139, 140, 140, 141, 141, 142, 142, 143, 144, 144, 145, 145, 146, 146, 147, 147, 148, 149, 149, 149, 150, 150, 151, 151, 152, 152, 153, 153, 153, 154, 154, 154, 155, 155, 156, 156, 157, 157, 157, 157, 158, 159, 159, 160, 160, 160, 161, 161, 162, 162, 162, 163, 163, 163, 164, 165, 165, 165, 166, 166, 166, 167, 168, 169, 170, 170, 171, 171, 171, 172, 172, 173, 173, 174, 174, 174, 174, 175, 176, 176, 177, 177, 178, 178, 179, 179, 180, 180, 180, 181, 181, 182, 182, 182, 183, 183, 183, 184, 184, 184, 185, 185, 185, 186, 186, 186, 187, 187, 187, 188, 188, 188, 189, 189, 190, 190, 191, 191, 191, 192, 192, 192, 193, 193, 194, 194, 194, 195, 195, 196, 196, 196, 197, 198, 198, 198, 199, 199, 199, 200, 200, 201, 201, 202, 202, 203, 203, 203, 203, 204, 205, 205, 205, 206, 206, 206, 207, 208, 208, 209, 209, 209, 210, 210, 210, 211, 211, 211, 212, 212, 213, 213, 214, 214, 214, 214, 215, 215, 215, 216, 217, 218, 218, 219, 219, 219, 220, 220, 220, 221, 222, 222, 223, 223, 223, 224, 224, 224, 225, 225, 225, 226, 227, 228, 229, 230, 230, 231, 231, 231, 232, 232, 233, 233, 234, 234, 235, 235, 235, 236, 236, 237, 238, 238, 239, 240, 240, 240, 241, 241, 241, 242, 242, 243, 243, 243, 244, 244, 245, 246, 246, 246, 247, 248, 249, 250, 250, 251, 251, 251, 252, 252, 252, 253, 254, 254, 255, 255, 255, 256, 257, 257, 257, 258, 258, 259, 260, 261, 262, 263, 263, 264, 264, 264, 265, 265, 265, 266, 266, 267, 267, 268, 268, 269, 269, 270, 270, 271, 271, 272, 273, 273, 274, 275, 276, 276, 277, 277, 278, 278, 279, 279, 280, 280, 280, 281, 281, 282, 282, 282, 283, 283, 284, 285, 286, 286, 287, 288, 289, 290, 290, 290, 291, 292, 292, 293, 293, 294, 294, 294, 295, 295, 295, 296, 296, 296, 297, 298, 298, 299, 299, 300, 301, 301, 301, 302, 302, 303, 303, 303, 304, 304, 305, 305, 306, 306, 306, 307, 307, 307, 308, 308, 308, 308, 309, 309, 310, 310, 311, 312, 313, 314, 314, 314, 315, 315, 315, 316, 316, 316, 317, 318, 319, 320, 320, 320, 321, 321, 321, 322, 322, 322, 323, 323, 323, 324, 324, 324, 325, 326, 326, 327, 327, 327, 328, 328, 329, 329, 330, 331, 331, 331, 332, 332, 333, 334, 334, 334, 335, 335, 335, 336, 336, 337, 338, 338, 339, 339, 339, 340, 340, 340, 341, 342, 342, 342, 343, 344, 344, 345, 346, 347, 348, 349, 349, 350, 351, 351, 352, 352, 353, 353, 353, 354, 354, 355, 356, 356, 356, 357, 357, 358, 359, 359, 360, 360, 361, 361, 361, 362, 362, 363, 363, 363, 364, 364, 365, 366, 366, 367, 367, 367, 368, 369, 370, 370, 370, 371, 372, 372, 373, 373, 373, 374, 375, 376, 377, 378, 378, 378, 379, 379, 379, 380, 380, 381, 382, 382, 383, 384, 384, 384, 385, 385, 385, 386, 387, 387, 388, 389, 389, 390, 390, 391, 391, 391, 392, 392, 393, 394, 395, 395, 396, 396, 397, 397, 397, 398, 399, 399, 399, 400, 401, 402, 402, 403, 404, 404, 405, 405, 405, 406, 407, 408, 409, 409, 410, 411, 411, 412, 412, 413, 414, 414, 415, 415, 415, 416, 416, 416, 417, 417, 417, 418, 418, 419, 419, 420, 420, 420, 421, 421, 422, 422, 422, 422, 423, 423, 424, 424, 424, 425, 426, 426, 427, 428, 428, 428, 429, 430, 430, 430, 431, 431, 431, 432, 432, 432, 433, 433, 433, 434, 435, 435, 436, 436, 437, 437, 437, 438, 439, 439, 440, 441, 441, 441, 442, 442, 443, 443, 443, 444, 444, 445, 445, 446, 447, 448, 449, 449, 449, 450, 450, 450, 451, 452, 452, 453, 454, 454, 454, 455, 455, 456, 457, 457, 458, 458, 459, 459, 460, 460, 461, 461, 461, 462, 463, 464, 464, 464, 465, 466, 466, 467, 467, 468, 468, 469, 469, 470, 470, 470, 471, 472, 472, 473, 473, 474, 475, 475, 476, 477, 477, 477, 478, 478, 479, 479, 480, 480, 480, 481, 481, 482, 482, 483, 484, 485, 485, 485, 486, 486, 486, 487, 487, 488, 488, 489, 489, 490, 491, 491, 492, 492, 492, 493, 493, 493, 494, 494, 494, 495, 496, 496, 496, 497, 497, 497, 498, 499, 499, 499, 500, 500, 500, 501, 501, 502, 503, 503, 503, 504, 504, 505, 506, 506, 507, 507, 507, 508, 508, 508, 509, 510, 510];
Edge_End = [113, 316, 5, 439, 344, 17, 174, 192, 439, 141, 243, 117, 146, 499, 140, 227, 16, 196, 391, 124, 132, 187, 131, 304, 305, 399, 422, 243, 29, 182, 480, 15, 220, 9, 225, 4, 192, 503, 220, 150, 179, 246, 161, 35, 255, 97, 479, 480, 81, 180, 183, 251, 431, 101, 180, 186, 28, 138, 424, 27, 272, 424, 14, 166, 235, 322, 100, 306, 36, 109, 416, 33, 36, 43, 157, 378, 468, 32, 33, 42, 50, 169, 189, 252, 42, 48, 240, 36, 40, 340, 34, 162, 461, 66, 147, 168, 2, 410, 189, 320, 198, 428, 496, 40, 51, 61, 199, 478, 486, 37, 40, 51, 50, 55, 50, 55, 292, 450, 284, 52, 136, 231, 460, 85, 356, 160, 52, 64, 54, 62, 48, 54, 424, 64, 136, 59, 184, 500, 44, 76, 492, 125, 454, 265, 495, 496, 70, 126, 69, 78, 160, 413, 259, 408, 7, 72, 291, 308, 312, 477, 60, 66, 390, 236, 238, 298, 246, 394, 401, 104, 263, 330, 431, 158, 364, 460, 195, 501, 440, 208, 458, 87, 335, 293, 437, 208, 458, 223, 207, 331, 447, 215, 233, 475, 313, 339, 470, 245, 507, 508, 487, 22, 130, 276, 435, 354, 432, 484, 30, 211, 327, 26, 252, 295, 243, 190, 405, 445, 488, 106, 109, 107, 114, 108, 111, 105, 112, 32, 106, 133, 306, 108, 219, 105, 264, 1, 157, 468, 107, 315, 170, 11, 198, 499, 470, 416, 372, 414, 188, 157, 357, 454, 241, 10, 67, 294, 370, 23, 481, 256, 510, 421, 199, 422, 478, 97, 326, 332, 11, 198, 10, 134, 286, 192, 303, 63, 209, 428, 27, 90, 320, 8, 412, 154, 219, 142, 205, 493, 266, 338, 240, 288, 7, 497, 44, 444, 185, 282, 367, 465, 19, 246, 97, 153, 77, 462, 326, 333, 492, 141, 178, 443, 283, 389, 181, 214, 35, 113, 122, 485, 56, 254, 294, 58, 71, 290, 20, 273, 43, 385, 466, 210, 211, 322, 251, 171, 203, 420, 29, 194, 235, 352, 404, 38, 115, 214, 165, 212, 229, 203, 500, 281, 376, 4, 235, 307, 479, 364, 175, 177, 175, 438, 469, 498, 19, 371, 24, 26, 464, 156, 214, 14, 275, 449, 25, 185, 251, 65, 203, 483, 148, 183, 186, 26, 185, 252, 10, 324, 461, 395, 411, 474, 38, 46, 128, 287, 202, 204, 361, 4, 17, 135, 6, 505, 166, 210, 307, 490, 501, 9, 310, 450, 441, 47, 116, 309, 49, 129, 378, 69, 78, 90, 139, 191, 354, 165, 172, 184, 307, 191, 142, 309, 328, 391, 448, 472, 92, 53, 201, 137, 374, 428, 163, 194, 211, 100, 163, 210, 171, 420, 445, 488, 156, 170, 181, 503, 93, 220, 315, 3, 310, 437, 459, 111, 141, 301, 15, 18, 215, 324, 426, 477, 91, 226, 296, 427, 493, 503, 244, 302, 435, 223, 8, 385, 171, 256, 473, 56, 336, 443, 93, 315, 70, 126, 76, 168, 29, 166, 174, 277, 317, 407, 152, 362, 409, 41, 145, 271, 123, 269, 305, 253, 436, 6, 13, 102, 16, 225, 95, 19, 79, 150, 230, 418, 269, 239, 325, 25, 164, 183, 39, 101, 186, 281, 159, 314, 21, 486, 504, 452, 290, 335, 412, 340, 429, 73, 86, 437, 360, 173, 265, 112, 269, 384, 68, 104, 263, 144, 372, 268, 311, 267, 425, 241, 264, 2, 410, 147, 444, 28, 283, 389, 336, 182, 177, 438, 317, 463, 238, 277, 359, 395, 297, 318, 449, 350, 506, 149, 367, 415, 268, 311, 151, 405, 291, 387, 502, 349, 504, 160, 257, 453, 234, 145, 271, 89, 419, 125, 159, 384, 101, 432, 464, 223, 335, 459, 280, 262, 440, 423, 451, 176, 219, 357, 485, 292, 450, 135, 386, 493, 213, 457, 241, 249, 31, 110, 405, 174, 194, 203, 75, 345, 361, 477, 116, 205, 196, 217, 155, 75, 94, 254, 370, 433, 114, 215, 232, 1, 193, 485, 146, 280, 237, 46, 139, 397, 323, 337, 499, 29, 163, 327, 321, 334, 337, 187, 221, 338, 406, 97, 153, 100, 322, 449, 205, 419, 44, 492, 82, 92, 339, 415, 130, 333, 329, 323, 342, 347, 88, 257, 296, 231, 274, 347, 144, 324, 94, 331, 470, 42, 258, 416, 250, 334, 353, 358, 507, 173, 348, 308, 467, 358, 265, 103, 134, 344, 414, 491, 167, 356, 342, 363, 369, 99, 202, 356, 57, 352, 355, 301, 417, 369, 80, 411, 365, 393, 191, 308, 385, 20, 273, 353, 373, 375, 158, 469, 360, 179, 371, 149, 282, 446, 489, 375, 125, 314, 430, 392, 120, 266, 363, 377, 381, 209, 381, 200, 373, 35, 199, 430, 399, 422, 433, 253, 376, 390, 434, 436, 443, 264, 294, 417, 162, 228, 361, 303, 74, 476, 496, 152, 362, 76, 377, 9, 206, 472, 260, 262, 394, 366, 279, 487, 259, 408, 320, 461, 508, 73, 12, 249, 379, 248, 83, 128, 285, 454, 240, 288, 103, 133, 306, 121, 398, 270, 325, 406, 396, 80, 474, 140, 257, 455, 120, 351, 282, 331, 464, 32, 119, 340, 67, 357, 384, 402, 421, 293, 328, 165, 212, 509, 287, 400, 12, 129, 379, 494, 45, 299, 27, 28, 62, 319, 222, 441, 224, 47, 137, 209, 258, 370, 378, 494, 25, 82, 491, 99, 295, 441, 314, 379, 494, 380, 98, 225, 242, 434, 89, 218, 261, 247, 45, 299, 382, 197, 426, 432, 486, 489, 154, 231, 383, 53, 201, 131, 304, 367, 92, 206, 182, 280, 327, 196, 244, 302, 127, 423, 451, 290, 67, 122, 403, 278, 463, 500, 87, 88, 213, 457, 218, 296, 84, 154, 43, 187, 397, 77, 497, 180, 295, 415, 149, 162, 467, 346, 466, 35, 113, 300, 498, 94, 118, 339, 121, 206, 391, 471, 510, 247, 93, 232, 72, 75, 222, 308, 49, 129, 174, 480, 14, 23, 481, 300, 482, 233, 475, 184, 99, 157, 301, 316, 49, 255, 442, 96, 279, 24, 81, 368, 442, 195, 351, 431, 66, 153, 284, 143, 224, 303, 422, 430, 433, 68, 47, 68, 388, 74, 413, 455, 482, 7, 74, 321, 65, 172, 456, 350, 506, 216, 17, 214, 224, 255, 289, 193, 57, 85, 95, 343, 508, 95, 397, 507, 420, 341, 471];
L = [1, 1, 1, 1, 1, 1, 1, 1, 1, 1, 1, 1, 1, 1, 1, 1, 1, 1, 1, 1, 1, 1, 1, 1, 1, 1, 1, 1, 1, 1, 1, 1, 1, 1, 1, 1, 1, 1, 1, 1, 1, 1, 1, 1, 1, 1, 1, 1, 1, 1, 1, 1, 1, 1, 1, 1, 1, 1, 1, 1, 1, 1, 1, 1, 1, 1, 1, 1, 1, 1, 1, 1, 1, 1, 1, 1, 1, 1, 1, 1, 1, 1, 1, 1, 1, 1, 1, 1, 1, 1, 1, 1, 1, 1, 1, 1, 1, 1, 1, 1, 1, 1, 1, 1, 1, 1, 1, 1, 1, 1, 1, 1, 1, 1, 1, 1, 1, 1, 1, 1, 1, 1, 1, 1, 1, 1, 1, 1, 1, 1, 1, 1, 1, 1, 1, 1, 1, 1, 1, 1, 1, 1, 1, 1, 1, 1, 1, 1, 1, 1, 1, 1, 1, 1, 1, 1, 1, 1, 1, 1, 1, 1, 1, 1, 1, 1, 1, 1, 1, 1, 1, 1, 1, 1, 1, 1, 1, 1, 1, 1, 1, 1, 1, 1, 1, 1, 1, 1, 1, 1, 1, 1, 1, 1, 1, 1, 1, 1, 1, 1, 1, 1, 1, 1, 1, 1, 1, 1, 1, 1, 1, 1, 1, 1, 1, 1, 1, 1, 1, 1, 1, 1, 1, 1, 1, 1, 1, 1, 1, 1, 1, 1, 1, 1, 1, 1, 1, 1, 1, 1, 1, 1, 1, 1, 1, 1, 1, 1, 1, 1, 1, 1, 1, 1, 1, 1, 1, 1, 1, 1, 1, 1, 1, 1, 1, 1, 1, 1, 1, 1, 1, 1, 1, 1, 1, 1, 1, 1, 1, 1, 1, 1, 1, 1, 1, 1, 1, 1, 1, 1, 1, 1, 1, 1, 1, 1, 1, 1, 1, 1, 1, 1, 1, 1, 1, 1, 1, 1, 1, 1, 1, 1, 1, 1, 1, 1, 1, 1, 1, 1, 1, 1, 1, 1, 1, 1, 1, 1, 1, 1, 1, 1, 1, 1, 1, 1, 1, 1, 1, 1, 1, 1, 1, 1, 1, 1, 1, 1, 1, 1, 1, 1, 1, 1, 1, 1, 1, 1, 1, 1, 1, 1, 1, 1, 1, 1, 1, 1, 1, 1, 1, 1, 1, 1, 1, 1, 1, 1, 1, 1, 1, 1, 1, 1, 1, 1, 1, 1, 1, 1, 1, 1, 1, 1, 1, 1, 1, 1, 1, 1, 1, 1, 1, 1, 1, 1, 1, 1, 1, 1, 1, 1, 1, 1, 1, 1, 1, 1, 1, 1, 1, 1, 1, 1, 1, 1, 1, 1, 1, 1, 1, 1, 1, 1, 1, 1, 1, 1, 1, 1, 1, 1, 1, 1, 1, 1, 1, 1, 1, 1, 1, 1, 1, 1, 1, 1, 1, 1, 1, 1, 1, 1, 1, 1, 1, 1, 1, 1, 1, 1, 1, 1, 1, 1, 1, 1, 1, 1, 1, 1, 1, 1, 1, 1, 1, 1, 1, 1, 1, 1, 1, 1, 1, 1, 1, 1, 1, 1, 1, 1, 1, 1, 1, 1, 1, 1, 1, 1, 1, 1, 1, 1, 1, 1, 1, 1, 1, 1, 1, 1, 1, 1, 1, 1, 1, 1, 1, 1, 1, 1, 1, 1, 1, 1, 1, 1, 1, 1, 1, 1, 1, 1, 1, 1, 1, 1, 1, 1, 1, 1, 1, 1, 1, 1, 1, 1, 1, 1, 1, 1, 1, 1, 1, 1, 1, 1, 1, 1, 1, 1, 1, 1, 1, 1, 1, 1, 1, 1, 1, 1, 1, 1, 1, 1, 1, 1, 1, 1, 1, 1, 1, 1, 1, 1, 1, 1, 1, 1, 1, 1, 1, 1, 1, 1, 1, 1, 1, 1, 1, 1, 1, 1, 1, 1, 1, 1, 1, 1, 1, 1, 1, 1, 1, 1, 1, 1, 1, 1, 1, 1, 1, 1, 1, 1, 1, 1, 1, 1, 1, 1, 1, 1, 1, 1, 1, 1, 1, 1, 1, 1, 1, 1, 1, 1, 1, 1, 1, 1, 1, 1, 1, 1, 1, 1, 1, 1, 1, 1, 1, 1, 1, 1, 1, 1, 1, 1, 1, 1, 1, 1, 1, 1, 1, 1, 1, 1, 1, 1, 1, 1, 1, 1, 1, 1, 1, 1, 1, 1, 1, 1, 1, 1, 1, 1, 1, 1, 1, 1, 1, 1, 1, 1, 1, 1, 1, 1, 1, 1, 1, 1, 1, 1, 1, 1, 1, 1, 1, 1, 1, 1, 1, 1, 1, 1, 1, 1, 1, 1, 1, 1, 1, 1, 1, 1, 1, 1, 1, 1, 1, 1, 1, 1, 1, 1, 1, 1, 1, 1, 1, 1, 1, 1, 1, 1, 1, 1, 1, 1, 1, 1, 1, 1, 1, 1, 1, 1, 1, 1, 1, 1, 1, 1, 1, 1, 1, 1, 1, 1, 1, 1, 1, 1, 1, 1, 1, 1, 1, 1, 1, 1, 1, 1, 1, 1, 1, 1, 1, 1, 1, 1, 1, 1, 1, 1, 1, 1, 1, 1, 1, 1, 1, 1, 1, 1, 1, 1, 1, 1, 1, 1, 1, 1, 1, 1, 1, 1, 1, 1, 1, 1, 1, 1, 1, 1, 1, 1, 1, 1, 1, 1, 1, 1, 1, 1, 1, 1, 1, 1, 1, 1, 1, 1, 1, 1, 1, 1, 1, 1, 1, 1, 1, 1, 1, 1, 1, 1, 1, 1, 1, 1, 1, 1, 1, 1, 1, 1, 1, 1, 1, 1, 1, 1, 1, 1, 1, 1, 1, 1, 1, 1, 1, 1, 1, 1, 1, 1, 1, 1, 1, 1, 1, 1, 1, 1, 1, 1, 1, 1, 1, 1, 1, 1, 1, 1, 1, 1, 1, 1, 1, 1, 1, 1, 1, 1, 1, 1, 1, 1, 1, 1, 1, 1, 1, 1, 1, 1, 1, 1, 1, 1, 1, 1, 1, 1, 1, 1, 1, 1, 1, 1, 1, 1, 1, 1, 1, 1, 1, 1, 1, 1, 1, 1, 1, 1, 1, 1, 1, 1, 1, 1, 1, 1, 1, 1, 1, 1, 1, 1, 1, 1, 1, 1, 1, 1, 1, 1, 1, 1, 1, 1, 1, 1, 1, 1, 1, 1, 1, 1, 1, 1, 1, 1, 1, 1, 1, 1, 1, 1, 1, 1, 1, 1, 1, 1, 1, 1, 1, 1, 1, 1, 1, 1, 1, 1, 1, 1, 1, 1, 1, 1, 1, 1, 1, 1, 1];
T = [1, 1, 1, 1, 1, 1, 1, 1, 1, 1, 1, 1, 1, 1, 1, 1, 1, 1, 1, 1, 1, 1, 1, 1, 1, 1, 1, 1, 1, 1, 1, 1, 1, 1, 1, 1, 1, 1, 1, 1, 1, 1, 1, 1, 1, 1, 1, 1, 1, 1, 1, 1, 1, 1, 1, 1, 1, 1, 1, 1, 1, 1, 1, 1, 1, 1, 1, 1, 1, 1, 1, 1, 1, 1, 1, 1, 1, 1, 1, 1, 1, 1, 1, 1, 1, 1, 1, 1, 1, 1, 1, 1, 1, 1, 1, 1, 1, 1, 1, 1, 1, 1, 1, 1, 1, 1, 1, 1, 1, 1, 1, 1, 1, 1, 1, 1, 1, 1, 1, 1, 1, 1, 1, 1, 1, 1, 1, 1, 1, 1, 1, 1, 1, 1, 1, 1, 1, 1, 1, 1, 1, 1, 1, 1, 1, 1, 1, 1, 1, 1, 1, 1, 1, 1, 1, 1, 1, 1, 1, 1, 1, 1, 1, 1, 1, 1, 1, 1, 1, 1, 1, 1, 1, 1, 1, 1, 1, 1, 1, 1, 1, 1, 1, 1, 1, 1, 1, 1, 1, 1, 1, 1, 1, 1, 1, 1, 1, 1, 1, 1, 1, 1, 1, 1, 1, 1, 1, 1, 1, 1, 1, 1, 1, 1, 1, 1, 1, 1, 1, 1, 1, 1, 1, 1, 1, 1, 1, 1, 1, 1, 1, 1, 1, 1, 1, 1, 1, 1, 1, 1, 1, 1, 1, 1, 1, 1, 1, 1, 1, 1, 1, 1, 1, 1, 1, 1, 1, 1, 1, 1, 1, 1, 1, 1, 1, 1, 1, 1, 1, 1, 1, 1, 1, 1, 1, 1, 1, 1, 1, 1, 1, 1, 1, 1, 1, 1, 1, 1, 1, 1, 1, 1, 1, 1, 1, 1, 1, 1, 1, 1, 1, 1, 1, 1, 1, 1, 1, 1, 1, 1, 1, 1, 1, 1, 1, 1, 1, 1, 1, 1, 1, 1, 1, 1, 1, 1, 1, 1, 1, 1, 1, 1, 1, 1, 1, 1, 1, 1, 1, 1, 1, 1, 1, 1, 1, 1, 1, 1, 1, 1, 1, 1, 1, 1, 1, 1, 1, 1, 1, 1, 1, 1, 1, 1, 1, 1, 1, 1, 1, 1, 1, 1, 1, 1, 1, 1, 1, 1, 1, 1, 1, 1, 1, 1, 1, 1, 1, 1, 1, 1, 1, 1, 1, 1, 1, 1, 1, 1, 1, 1, 1, 1, 1, 1, 1, 1, 1, 1, 1, 1, 1, 1, 1, 1, 1, 1, 1, 1, 1, 1, 1, 1, 1, 1, 1, 1, 1, 1, 1, 1, 1, 1, 1, 1, 1, 1, 1, 1, 1, 1, 1, 1, 1, 1, 1, 1, 1, 1, 1, 1, 1, 1, 1, 1, 1, 1, 1, 1, 1, 1, 1, 1, 1, 1, 1, 1, 1, 1, 1, 1, 1, 1, 1, 1, 1, 1, 1, 1, 1, 1, 1, 1, 1, 1, 1, 1, 1, 1, 1, 1, 1, 1, 1, 1, 1, 1, 1, 1, 1, 1, 1, 1, 1, 1, 1, 1, 1, 1, 1, 1, 1, 1, 1, 1, 1, 1, 1, 1, 1, 1, 1, 1, 1, 1, 1, 1, 1, 1, 1, 1, 1, 1, 1, 1, 1, 1, 1, 1, 1, 1, 1, 1, 1, 1, 1, 1, 1, 1, 1, 1, 1, 1, 1, 1, 1, 1, 1, 1, 1, 1, 1, 1, 1, 1, 1, 1, 1, 1, 1, 1, 1, 1, 1, 1, 1, 1, 1, 1, 1, 1, 1, 1, 1, 1, 1, 1, 1, 1, 1, 1, 1, 1, 1, 1, 1, 1, 1, 1, 1, 1, 1, 1, 1, 1, 1, 1, 1, 1, 1, 1, 1, 1, 1, 1, 1, 1, 1, 1, 1, 1, 1, 1, 1, 1, 1, 1, 1, 1, 1, 1, 1, 1, 1, 1, 1, 1, 1, 1, 1, 1, 1, 1, 1, 1, 1, 1, 1, 1, 1, 1, 1, 1, 1, 1, 1, 1, 1, 1, 1, 1, 1, 1, 1, 1, 1, 1, 1, 1, 1, 1, 1, 1, 1, 1, 1, 1, 1, 1, 1, 1, 1, 1, 1, 1, 1, 1, 1, 1, 1, 1, 1, 1, 1, 1, 1, 1, 1, 1, 1, 1, 1, 1, 1, 1, 1, 1, 1, 1, 1, 1, 1, 1, 1, 1, 1, 1, 1, 1, 1, 1, 1, 1, 1, 1, 1, 1, 1, 1, 1, 1, 1, 1, 1, 1, 1, 1, 1, 1, 1, 1, 1, 1, 1, 1, 1, 1, 1, 1, 1, 1, 1, 1, 1, 1, 1, 1, 1, 1, 1, 1, 1, 1, 1, 1, 1, 1, 1, 1, 1, 1, 1, 1, 1, 1, 1, 1, 1, 1, 1, 1, 1, 1, 1, 1, 1, 1, 1, 1, 1, 1, 1, 1, 1, 1, 1, 1, 1, 1, 1, 1, 1, 1, 1, 1, 1, 1, 1, 1, 1, 1, 1, 1, 1, 1, 1, 1, 1, 1, 1, 1, 1, 1, 1, 1, 1, 1, 1, 1, 1, 1, 1, 1, 1, 1, 1, 1, 1, 1, 1, 1, 1, 1, 1, 1, 1, 1, 1, 1, 1, 1, 1, 1, 1, 1, 1, 1, 1, 1, 1, 1, 1, 1, 1, 1, 1, 1, 1, 1, 1, 1, 1, 1, 1, 1, 1, 1, 1, 1, 1, 1, 1, 1, 1, 1, 1, 1, 1, 1, 1, 1, 1, 1, 1, 1, 1, 1, 1, 1, 1, 1, 1, 1, 1, 1, 1, 1, 1, 1, 1, 1, 1, 1, 1, 1, 1, 1, 1, 1, 1, 1, 1, 1, 1, 1, 1, 1, 1, 1, 1, 1, 1, 1, 1, 1, 1, 1, 1, 1, 1, 1, 1, 1, 1, 1, 1, 1, 1, 1, 1, 1, 1, 1, 1, 1, 1, 1, 1, 1, 1, 1, 1, 1, 1, 1, 1, 1, 1, 1, 1, 1, 1, 1, 1, 1, 1, 1, 1, 1, 1, 1, 1, 1, 1, 1, 1, 1, 1, 1, 1, 1, 1, 1, 1, 1, 1, 1, 1, 1, 1, 1, 1, 1, 1, 1, 1, 1, 1, 1, 1, 1, 1, 1, 1, 1, 1, 1, 1, 1, 1, 1, 1, 1, 1, 1, 1, 1, 1, 1, 1, 1, 1, 1, 1, 1, 1, 1, 1, 1, 1, 1, 1, 1, 1, 1, 1];
Lower_Bound = [26, 27, 8, 18, 26, 27, 12, 21, 20, 22, 14, 31, 32, 16, 20, 19, 18, 21, 20, 17, 32, 17, 14, 13, 19, 15, 15, 15, 17, 21, 7, 24, 27, 22, 26, 28, 31, 21, 18, 27, 14, 26, 22, 13, 24, 20, 13, 29, 29, 30, 29, 31, 17, 15, 30, 20, 14, 20, 34, 13, 30, 13, 32, 33, 21, 13, 26, 11, 13, 13, 20, 11, 26, 10, 22, 11, 18, 13, 24, 26, 13, 22, 28, 22, 13, 22, 15, 15, 20, 18, 19, 18, 17, 19, 22, 28, 17, 21, 18, 20, 16, 29, 6, 11, 22, 23, 20, 21, 24, 7, 23, 24, 26, 19, 22, 16, 14, 22, 26, 24, 23, 27, 26, 24, 29, 15, 26, 4, 29, 17, 16, 23, 6, 7, 19, 35, 15, 17, 19, 19, 23, 17, 22, 24, 14, 12, 14, 19, 18, 21, 17, 16, 14, 22, 22, 21, 25, 21, 27, 19, 22, 24, 19, 20, 19, 18, 15, 11, 22, 21, 20, 19, 9, 16, 17, 17, 17, 23, 19, 15, 23, 19, 18, 20, 18, 16, 21, 24, 22, 7, 22, 18, 26, 18, 14, 18, 19, 16, 28, 11, 16, 21, 18, 23, 16, 22, 19, 16, 15, 21, 20, 22, 14, 20, 18, 6, 20, 20, 22, 19, 23, 20, 18, 20, 19, 19, 21, 24, 21, 20, 23, 18, 16, 10, 17, 18, 23, 15, 26, 14, 25, 17, 28, 19, 24, 22, 21, 1, 27, 24, 21, 18, 18, 27, 31, 21, 17, 29, 26, 21, 21, 15, 11, 23, 10, 25, 20, 19, 24, 27, 14, 16, 17, 23, 19, 17, 15, 14, 26, 20, 10, 18, 18, 16, 4, 8, 6, 13, 34, 19, 9, 17, 19, 26, 16, 17, 20, 13, 24, 15, 23, 20, 20, 14, 28, 8, 17, 22, 15, 20, 19, 24, 20, 29, 18, 26, 16, 20, 22, 19, 13, 18, 14, 24, 25, 15, 21, 17, 16, 22, 18, 19, 15, 15, 17, 22, 14, 23, 18, 26, 23, 16, 22, 8, 23, 25, 16, 9, 14, 11, 23, 14, 16, 19, 14, 13, 24, 16, 28, 16, 22, 16, 16, 18, 16, 18, 18, 35, 17, 27, 19, 26, 14, 16, 17, 11, 13, 28, 30, 17, 15, 15, 23, 26, 23, 21, 9, 13, 18, 15, 20, 20, 19, 17, 25, 26, 19, 24, 33, 0, 27, 3, 28, 12, 5, 26, 24, 26, 26, 26, 27, 18, 12, 23, 16, 25, 25, 2, 19, 22, 3, 33, 24, 14, 20, 20, 23, 14, 28, 29, 20, 17, 29, 16, 21, 17, 20, 19, 26, 15, 18, 31, 22, 16, 13, 19, 20, 22, 18, 17, 23, 23, 19, 27, 13, 23, 14, 16, 18, 24, 23, 19, 15, 15, 19, 24, 25, 27, 20, 20, 22, 21, 21, 25, 17, 10, 21, 30, 15, 16, 14, 15, 20, 19, 24, 33, 27, 12, 32, 14, 22, 14, 21, 30, 13, 12, 13, 20, 12, 20, 13, 5, 20, 32, 28, 11, 21, 21, 21, 22];
Upper_Bound = [31, 30, 13, 23, 27, 28, 18, 22, 23, 29, 16, 37, 36, 20, 21, 34, 22, 28, 25, 28, 36, 20, 16, 17, 20, 21, 26, 23, 24, 25, 9, 28, 39, 23, 27, 32, 33, 29, 24, 41, 20, 28, 24, 14, 31, 22, 15, 31, 39, 33, 30, 44, 25, 20, 34, 22, 15, 24, 41, 19, 34, 24, 45, 42, 28, 18, 30, 17, 22, 14, 27, 13, 27, 21, 23, 12, 22, 15, 25, 44, 21, 23, 29, 37, 18, 24, 26, 18, 22, 21, 31, 25, 22, 21, 30, 30, 20, 22, 47, 22, 33, 31, 11, 22, 35, 25, 43, 29, 28, 11, 24, 37, 34, 20, 24, 24, 24, 37, 28, 29, 26, 28, 42, 25, 31, 17, 27, 5, 34, 22, 17, 26, 19, 11, 36, 39, 19, 30, 23, 22, 27, 18, 31, 34, 17, 14, 15, 22, 28, 31, 21, 24, 19, 28, 33, 22, 30, 30, 29, 25, 24, 27, 24, 24, 21, 24, 18, 14, 25, 28, 26, 23, 10, 20, 18, 18, 24, 32, 20, 21, 25, 21, 23, 33, 25, 17, 26, 26, 24, 15, 30, 19, 27, 19, 16, 22, 20, 22, 32, 26, 18, 23, 19, 24, 19, 36, 21, 17, 21, 27, 26, 44, 19, 24, 19, 13, 23, 24, 28, 28, 24, 21, 34, 21, 21, 23, 23, 29, 22, 26, 40, 21, 28, 21, 20, 25, 29, 23, 27, 25, 26, 28, 39, 22, 32, 31, 26, 4, 29, 26, 30, 22, 22, 31, 32, 25, 27, 36, 28, 22, 27, 16, 12, 24, 15, 30, 28, 45, 25, 29, 24, 17, 18, 26, 24, 18, 16, 15, 37, 24, 13, 27, 19, 17, 11, 10, 7, 23, 39, 37, 13, 26, 28, 27, 28, 18, 23, 14, 25, 23, 29, 24, 25, 17, 34, 9, 19, 23, 19, 25, 25, 25, 24, 33, 23, 37, 20, 23, 25, 20, 19, 23, 20, 26, 26, 19, 22, 19, 32, 25, 19, 27, 29, 18, 22, 24, 28, 25, 19, 33, 25, 18, 25, 10, 24, 27, 18, 11, 21, 13, 24, 23, 30, 22, 18, 15, 31, 17, 30, 19, 23, 21, 17, 19, 18, 21, 23, 60, 23, 29, 20, 27, 16, 22, 28, 12, 18, 30, 31, 20, 17, 21, 24, 30, 33, 26, 20, 16, 23, 17, 23, 22, 31, 19, 36, 34, 26, 29, 35, 5, 33, 10, 35, 15, 7, 29, 29, 28, 28, 30, 32, 19, 13, 29, 24, 27, 35, 4, 21, 27, 4, 38, 29, 15, 25, 24, 25, 41, 31, 33, 21, 21, 36, 18, 26, 22, 27, 20, 27, 22, 23, 35, 49, 19, 14, 21, 21, 25, 19, 27, 25, 27, 20, 28, 17, 27, 15, 20, 24, 25, 24, 22, 16, 29, 36, 27, 28, 28, 25, 22, 24, 22, 27, 51, 21, 13, 23, 38, 16, 18, 21, 16, 22, 21, 36, 34, 31, 14, 42, 17, 26, 32, 22, 32, 15, 17, 19, 38, 17, 22, 25, 8, 23, 40, 30, 15, 26, 28, 24, 24];
Start = 400;
End = 215;
Time = 19;
